c A SAT instance generated from a 3-CNF formula that had 20 clauses and 10 variables
p cnf 10 20
1 3 10 0
7 -6 10 0
3 -4 -9 0
4 9 5 0
9 6 -2 0
7 10 -9 0
-2 -6 8 0
-8 10 3 0
6 10 -7 0
-3 -8 9 0
-2 -6 -10 0
6 5 8 0
9 -5 -3 0
-5 -8 -3 0
-10 -7 6 0
7 -9 -10 0
-2 -4 10 0
1 10 -3 0
10 -8 -5 0
-5 -8 -1 0
